edges = [{1, 2, 5}, {1, 2, 6}, {10, 3, 4}, {11, 3, 4, 5}, {1, 4, 5, 6, 12}, {2, 13, 5, 6}, {8, 18, 7}, {8, 9, 19, 7}, {8, 9, 10, 20}, {3, 9, 10, 11, 21}, {4, 10, 11, 12, 22}, {5, 11, 12, 13, 23}, {6, 12, 13, 14, 24}, {25, 13, 14, 15}, {16, 26, 14, 15}, {16, 17, 27, 15}, {16, 17, 28}, {18, 19, 30, 7}, {8, 18, 19, 20, 31}, {32, 9, 19, 20, 21}, {33, 10, 20, 21, 22}, {34, 11, 21, 22, 23}, {35, 12, 22, 23, 24}, {36, 13, 23, 24, 25}, {37, 14, 24, 25, 26}, {38, 15, 25, 26, 27}, {39, 16, 26, 27, 28}, {40, 17, 27, 28}, {42, 29, 30}, {43, 18, 29, 30, 31}, {32, 44, 19, 30, 31}, {32, 33, 45, 20, 31}, {32, 33, 34, 46, 21}, {33, 34, 35, 47, 22}, {34, 35, 36, 48, 23}, {35, 36, 37, 49, 24}, {36, 37, 38, 50, 25}, {37, 38, 39, 51, 26}, {38, 39, 40, 52, 27}, {40, 28, 53, 39}, {41, 42, 58}, {41, 42, 43, 59, 29}, {42, 43, 44, 60, 30}, {43, 44, 45, 31}, {32, 44, 45, 46}, {33, 45, 46, 47, 61}, {34, 46, 47, 48, 62}, {35, 47, 48, 49, 63}, {64, 36, 48, 49, 50}, {65, 37, 49, 50, 51}, {66, 38, 50, 51, 52}, {67, 39, 51, 52, 53}, {68, 40, 52, 53, 54}, {69, 53, 54, 55}, {70, 54, 55}, {56, 57, 71}, {56, 57, 58, 72}, {73, 41, 57, 58, 59}, {42, 74, 58, 59, 60}, {59, 43, 60}, {62, 75, 61, 46}, {76, 47, 61, 62, 63}, {64, 77, 48, 62, 63}, {64, 65, 78, 49, 63}, {64, 65, 66, 79, 50}, {65, 66, 67, 80, 51}, {66, 67, 68, 81, 52}, {67, 68, 69, 82, 53}, {68, 69, 70, 83, 54}, {69, 70, 55}, {56, 72, 84, 71}, {71, 72, 73, 85, 57}, {72, 73, 74, 86, 58}, {73, 74, 59, 87}, {88, 75, 76, 61}, {75, 76, 77, 89, 62}, {76, 77, 78, 90, 63}, {64, 77, 78, 79, 91}, {65, 78, 79, 80, 92}, {66, 79, 80, 81, 93}, {67, 80, 81, 82, 94}, {68, 81, 82, 83, 95}, {82, 83, 69}, {96, 84, 85, 71}, {97, 72, 84, 85, 86}, {98, 73, 85, 86, 87}, {74, 99, 86, 87}, {88, 89, 75, 101}, {102, 76, 88, 89, 90}, {103, 77, 89, 90, 91}, {104, 78, 90, 91, 92}, {105, 79, 91, 92, 93}, {106, 80, 92, 93, 94}, {107, 81, 93, 94, 95}, {82, 108, 94, 95}, {96, 97, 84, 109}, {96, 97, 98, 110, 85}, {97, 98, 99, 111, 86}, {112, 98, 99, 87}, {100, 101}, {100, 101, 102, 113, 88}, {101, 102, 103, 114, 89}, {102, 103, 104, 115, 90}, {103, 104, 105, 116, 91}, {104, 105, 106, 117, 92}, {105, 106, 107, 118, 93}, {106, 107, 108, 119, 94}, {120, 107, 108, 95}, {96, 121, 109, 110}, {97, 109, 110, 111, 122}, {98, 110, 111, 112, 123}, {112, 99, 124, 111}, {113, 114, 125, 101}, {102, 113, 114, 115, 126}, {103, 114, 115, 116, 127}, {128, 104, 115, 116, 117}, {129, 105, 116, 117, 118}, {130, 106, 117, 118, 119}, {131, 107, 118, 119, 120}, {120, 132, 108, 119}, {121, 122, 109}, {134, 110, 121, 122, 123}, {135, 111, 122, 123, 124}, {112, 123, 124, 136}, {113, 140, 125, 126}, {141, 114, 125, 126, 127}, {128, 142, 115, 126, 127}, {128, 129, 143, 116, 127}, {128, 129, 130, 144, 117}, {129, 130, 131, 145, 118}, {130, 131, 132, 146, 119}, {131, 132, 133, 147, 120}, {148, 132, 133}, {122, 134, 135}, {134, 135, 136, 150, 123}, {135, 136, 137, 151, 124}, {136, 137, 138, 152}, {153, 137, 138, 139}, {138, 139, 140, 154}, {139, 140, 141, 155, 125}, {140, 141, 142, 156, 126}, {141, 142, 143, 157, 127}, {128, 142, 143, 144, 158}, {129, 143, 144, 145, 159}, {160, 130, 144, 145, 146}, {161, 131, 145, 146, 147}, {162, 132, 146, 147, 148}, {163, 133, 147, 148, 149}, {164, 148, 149}, {151, 150, 135}, {165, 136, 150, 151, 152}, {166, 137, 151, 152, 153}, {167, 138, 152, 153, 154}, {168, 139, 153, 154, 155}, {169, 140, 154, 155, 156}, {170, 141, 155, 156, 157}, {171, 142, 156, 157, 158}, {172, 143, 157, 158, 159}, {160, 173, 144, 158, 159}, {160, 161, 174, 145, 159}, {160, 161, 162, 175, 146}, {161, 162, 163, 176, 147}, {162, 163, 164, 177, 148}, {178, 163, 164, 149}, {165, 166, 151}, {165, 166, 167, 179, 152}, {166, 167, 168, 180, 153}, {167, 168, 169, 181, 154}, {168, 169, 170, 182, 155}, {169, 170, 171, 183, 156}, {170, 171, 172, 184, 157}, {171, 172, 173, 185, 158}, {172, 173, 174, 186, 159}, {160, 173, 174, 175, 187}, {161, 174, 175, 176, 188}, {162, 175, 176, 177, 189}, {163, 176, 177, 178, 190}, {177, 178, 164, 191}, {179, 180, 166}, {192, 167, 179, 180, 181}, {193, 168, 180, 181, 182}, {194, 169, 181, 182, 183}, {195, 170, 182, 183, 184}, {196, 171, 183, 184, 185}, {197, 172, 184, 185, 186}, {198, 173, 185, 186, 187}, {199, 174, 186, 187, 188}, {200, 175, 187, 188, 189}, {201, 176, 188, 189, 190}, {202, 177, 189, 190, 191}, {178, 203, 190, 191}, {192, 193, 180, 205}, {192, 193, 194, 206, 181}, {193, 194, 195, 207, 182}, {194, 195, 196, 208, 183}, {195, 196, 197, 209, 184}, {196, 197, 198, 210, 185}, {197, 198, 199, 211, 186}, {198, 199, 200, 212, 187}, {199, 200, 201, 213, 188}, {200, 201, 202, 214, 189}, {201, 202, 203, 215, 190}, {216, 202, 203, 191}, {204, 205}, {192, 204, 205, 206, 217}, {193, 205, 206, 207, 218}, {194, 206, 207, 208, 219}, {195, 207, 208, 209, 220}, {196, 208, 209, 210, 221}, {197, 209, 210, 211, 222}, {198, 210, 211, 212, 223}, {224, 199, 211, 212, 213}, {225, 200, 212, 213, 214}, {226, 201, 213, 214, 215}, {227, 202, 214, 215, 216}, {216, 203, 228, 215}, {217, 218, 205, 229}, {230, 206, 217, 218, 219}, {231, 207, 218, 219, 220}, {232, 208, 219, 220, 221}, {233, 209, 220, 221, 222}, {234, 210, 221, 222, 223}, {224, 235, 211, 222, 223}, {224, 225, 236, 212, 223}, {224, 225, 226, 237, 213}, {225, 226, 227, 238, 214}, {226, 227, 228, 239, 215}, {216, 240, 227, 228}, {217, 241, 229, 230}, {229, 230, 231, 242, 218}, {230, 231, 232, 243, 219}, {231, 232, 233, 244, 220}, {232, 233, 234, 245, 221}, {233, 234, 235, 246, 222}, {234, 235, 236, 247, 223}, {224, 235, 236, 237, 248}, {225, 236, 237, 238, 249}, {226, 237, 238, 239, 250}, {227, 238, 239, 240, 251}, {240, 228, 252, 239}, {241, 242, 229, 253}, {230, 241, 242, 243, 254}, {231, 242, 243, 244, 255}, {256, 232, 243, 244, 245}, {257, 233, 244, 245, 246}, {258, 234, 245, 246, 247}, {259, 235, 246, 247, 248}, {260, 236, 247, 248, 249}, {261, 237, 248, 249, 250}, {262, 238, 249, 250, 251}, {263, 239, 250, 251, 252}, {240, 264, 251, 252}, {241, 253, 254, 265}, {266, 242, 253, 254, 255}, {256, 267, 243, 254, 255}, {256, 257, 268, 244, 255}, {256, 257, 258, 269, 245}, {257, 258, 259, 270, 246}, {258, 259, 260, 271, 247}, {259, 260, 261, 272, 248}, {260, 261, 262, 273, 249}, {261, 262, 263, 274, 250}, {262, 263, 264, 275, 251}, {264, 252, 276, 263}, {265, 266, 253, 286}, {265, 266, 267, 254, 287}, {288, 266, 267, 268, 255}, {256, 289, 267, 268, 269}, {257, 290, 268, 269, 270}, {258, 291, 269, 270, 271}, {259, 292, 270, 271, 272}, {260, 293, 271, 272, 273}, {261, 294, 272, 273, 274}, {262, 295, 273, 274, 275}, {263, 296, 274, 275, 276}, {264, 297, 275, 276}, {298, 277, 278}, {299, 277, 278, 279}, {280, 300, 278, 279}, {280, 281, 301, 279}, {280, 281, 282, 302}, {281, 282, 283, 303}, {304, 282, 283, 284}, {305, 283, 284}, {310, 285, 286}, {265, 311, 285, 286, 287}, {288, 266, 312, 286, 287}, {288, 289, 267, 313, 287}, {288, 289, 290, 268}, {289, 290, 291, 269}, {290, 291, 292, 270}, {291, 292, 293, 271, 314}, {292, 293, 294, 272, 315}, {293, 294, 295, 273, 316}, {294, 295, 296, 274, 317}, {295, 296, 297, 275, 318}, {296, 297, 276, 319}, {320, 298, 299, 277}, {321, 298, 299, 300, 278}, {322, 299, 300, 301, 279}, {323, 300, 301, 302, 280}, {324, 301, 302, 303, 281}, {325, 302, 303, 304, 282}, {326, 303, 304, 305, 283}, {327, 304, 305, 306, 284}, {328, 305, 306, 307}, {329, 306, 307}, {333, 308, 309}, {334, 308, 309, 310}, {335, 309, 310, 311, 285}, {336, 310, 311, 312, 286}, {337, 311, 312, 313, 287}, {288, 313, 312, 338}, {339, 314, 315, 292}, {293, 340, 314, 315, 316}, {294, 341, 315, 316, 317}, {295, 342, 316, 317, 318}, {296, 343, 317, 318, 319}, {344, 297, 318, 319}, {320, 321, 298}, {320, 321, 322, 299}, {321, 322, 323, 300}, {322, 323, 324, 301, 345}, {323, 324, 325, 302, 346}, {324, 325, 326, 303, 347}, {325, 326, 327, 304, 348}, {326, 327, 328, 305, 349}, {327, 328, 329, 306, 350}, {328, 329, 330, 307, 351}, {352, 329, 330, 331}, {353, 330, 331, 332}, {354, 331, 332, 333}, {355, 332, 333, 334, 308}, {356, 333, 334, 335, 309}, {357, 334, 335, 336, 310}, {358, 335, 336, 337, 311}, {359, 336, 337, 338, 312}, {337, 313, 338, 360}, {361, 314, 339, 340}, {362, 339, 340, 341, 315}, {363, 340, 341, 342, 316}, {364, 341, 342, 343, 317}, {365, 342, 343, 344, 318}, {344, 366, 343, 319}, {345, 346, 323, 367}, {324, 368, 345, 346, 347}, {325, 369, 346, 347, 348}, {326, 370, 347, 348, 349}, {327, 371, 348, 349, 350}, {328, 372, 349, 350, 351}, {352, 329, 373, 350, 351}, {352, 353, 330, 374, 351}, {352, 353, 354, 331, 375}, {353, 354, 355, 332, 376}, {354, 355, 356, 333, 377}, {355, 356, 357, 334, 378}, {356, 357, 358, 335, 379}, {357, 358, 359, 336, 380}, {358, 359, 360, 337, 381}, {360, 338, 382, 359}, {361, 362, 339, 383}, {384, 361, 362, 363, 340}, {385, 362, 363, 364, 341}, {386, 363, 364, 365, 342}, {387, 364, 365, 366, 343}, {344, 388, 365, 366}, {368, 345, 367}, {389, 367, 368, 369, 346}, {390, 368, 369, 370, 347}, {391, 369, 370, 371, 348}, {392, 370, 371, 372, 349}, {393, 371, 372, 373, 350}, {394, 372, 373, 374, 351}, {352, 395, 373, 374, 375}, {353, 396, 374, 375, 376}, {354, 397, 375, 376, 377}, {355, 398, 376, 377, 378}, {356, 399, 377, 378, 379}, {357, 400, 378, 379, 380}, {358, 401, 379, 380, 381}, {359, 402, 380, 381, 382}, {360, 403, 381, 382}, {384, 361, 383}, {384, 385, 362, 404, 383}, {384, 385, 386, 363, 405}, {385, 386, 387, 364, 406}, {386, 387, 388, 365, 407}, {408, 387, 388, 366}, {368, 409, 389, 390}, {389, 390, 391, 369, 410}, {390, 391, 392, 370, 411}, {391, 392, 393, 371, 412}, {392, 393, 394, 372, 413}, {393, 394, 395, 373, 414}, {394, 395, 396, 374, 415}, {416, 395, 396, 397, 375}, {417, 396, 397, 398, 376}, {418, 397, 398, 399, 377}, {419, 398, 399, 400, 378}, {420, 399, 400, 401, 379}, {421, 400, 401, 402, 380}, {422, 401, 402, 403, 381}, {402, 403, 382, 423}, {384, 404, 405}, {385, 404, 405, 406}, {386, 405, 406, 407}, {408, 387, 406, 407}, {408, 388, 407}, {424, 409, 410, 389}, {390, 425, 409, 410, 411}, {391, 426, 410, 411, 412}, {392, 427, 411, 412, 413}, {393, 428, 412, 413, 414}, {394, 429, 413, 414, 415}, {416, 395, 430, 414, 415}, {416, 417, 396, 431, 415}, {416, 417, 418, 397, 432}, {417, 418, 419, 398, 433}, {418, 419, 420, 399, 434}, {419, 420, 421, 400, 435}, {420, 421, 422, 401, 436}, {421, 422, 423, 402, 437}, {403, 438, 422, 423}, {424, 409, 425, 440}, {424, 425, 426, 441, 410}, {425, 426, 427, 442, 411}, {426, 427, 428, 443, 412}, {427, 428, 429, 444, 413}, {428, 429, 430, 445, 414}, {429, 430, 431, 446, 415}, {416, 430, 431, 432, 447}, {448, 417, 431, 432, 433}, {449, 418, 432, 433, 434}, {450, 419, 433, 434, 435}, {451, 420, 434, 435, 436}, {452, 421, 435, 436, 437}, {453, 422, 436, 437, 438}, {454, 423, 437, 438, 439}, {455, 438, 439}, {440, 441, 424, 456}, {425, 457, 440, 441, 442}, {426, 458, 441, 442, 443}, {427, 459, 442, 443, 444}, {460, 428, 443, 444, 445}, {461, 429, 444, 445, 446}, {462, 430, 445, 446, 447}, {448, 431, 463, 446, 447}, {448, 449, 464, 432, 447}, {448, 449, 450, 433, 465}, {449, 450, 451, 434, 466}, {450, 451, 452, 435, 467}, {451, 452, 453, 468, 436}, {452, 453, 454, 469, 437}, {453, 454, 455, 470, 438}, {439, 471, 454, 455}, {456, 457, 477, 440}, {456, 457, 458, 441, 478}, {457, 458, 459, 442, 479}, {480, 458, 459, 460, 443}, {481, 459, 460, 461, 444}, {482, 460, 461, 462, 445}, {483, 461, 462, 463, 446}, {484, 462, 463, 464, 447}, {448, 485, 463, 464, 465}, {449, 486, 464, 465, 466}, {450, 487, 465, 466, 467}, {451, 488, 466, 467, 468}, {452, 489, 467, 468, 469}, {453, 490, 468, 469, 470}, {454, 491, 469, 470, 471}, {455, 492, 470, 471, 472}, {472, 493, 471}, {496, 473, 474}, {473, 474, 475, 497}, {498, 474, 475, 476}, {475, 476, 499}, {456, 500, 477, 478}, {457, 501, 477, 478, 479}, {480, 458, 502, 478, 479}, {480, 481, 459, 503, 479}, {480, 481, 482, 460, 504}, {481, 482, 483, 461, 505}, {482, 483, 484, 462}, {483, 484, 485, 463}, {464, 484, 485, 486}, {465, 485, 486, 487}, {488, 466, 486, 487}, {487, 488, 489, 467, 506}, {488, 489, 490, 468, 507}, {489, 490, 491, 469, 508}, {490, 491, 492, 470, 509}, {491, 492, 493, 471, 510}, {492, 493, 494, 472, 511}, {512, 493, 494, 495}, {496, 513, 494, 495}, {514, 495, 496, 497, 473}, {515, 496, 497, 498, 474}, {516, 497, 498, 499, 475}, {498, 499, 476, 517}, {501, 500, 477, 518}, {519, 500, 501, 502, 478}, {520, 501, 502, 503, 479}, {480, 521, 502, 503, 504}, {481, 522, 503, 504, 505}, {504, 505, 482, 523}, {488, 506, 507, 524}, {489, 525, 506, 507, 508}, {490, 526, 507, 508, 509}, {491, 527, 508, 509, 510}, {492, 528, 509, 510, 511}, {512, 493, 529, 510, 511}, {512, 513, 494, 530, 511}, {512, 513, 514, 495, 531}, {513, 514, 515, 496, 532}, {514, 515, 516, 497, 533}, {515, 516, 517, 498, 534}, {499, 516, 517, 535}, {536, 500, 518, 519}, {518, 519, 520, 501, 537}, {519, 520, 521, 502, 538}, {520, 521, 522, 503, 539}, {521, 522, 523, 504, 540}, {505, 522, 523, 541}, {506, 524, 525, 543}, {544, 524, 525, 526, 507}, {545, 525, 526, 527, 508}, {546, 526, 527, 528, 509}, {547, 527, 528, 529, 510}, {548, 528, 529, 530, 511}, {512, 549, 529, 530, 531}, {513, 550, 530, 531, 532}, {514, 551, 531, 532, 533}, {515, 552, 532, 533, 534}, {516, 553, 533, 534, 535}, {554, 517, 534, 535}, {536, 537, 555, 518}, {519, 556, 536, 537, 538}, {520, 557, 537, 538, 539}, {521, 558, 538, 539, 540}, {522, 559, 539, 540, 541}, {523, 560, 540, 541, 542}, {541, 542}, {544, 561, 524, 543}, {544, 545, 525, 562, 543}, {544, 545, 546, 526, 563}, {545, 546, 547, 527, 564}, {546, 547, 548, 528, 565}, {547, 548, 549, 529, 566}, {548, 549, 550, 530, 567}, {549, 550, 551, 531, 568}, {550, 551, 552, 532, 569}, {551, 552, 553, 533, 570}, {552, 553, 554, 534, 571}, {553, 554, 572, 535}, {536, 555, 556, 573}, {555, 556, 557, 537, 574}, {556, 557, 558, 538, 575}, {576, 557, 558, 559, 539}, {577, 558, 559, 560, 540}, {560, 578, 541, 559}, {561, 562, 579, 543}, {544, 580, 561, 562, 563}, {545, 581, 562, 563, 564}, {546, 582, 563, 564, 565}, {547, 583, 564, 565, 566}, {548, 584, 565, 566, 567}, {549, 585, 566, 567, 568}, {550, 586, 567, 568, 569}, {551, 587, 568, 569, 570}, {552, 588, 569, 570, 571}, {553, 589, 570, 571, 572}, {554, 571, 572, 590}, {555, 573, 574, 591}, {556, 592, 573, 574, 575}, {576, 557, 593, 574, 575}, {576, 577, 558, 594, 575}, {576, 577, 578, 559, 595}, {560, 577, 578, 596}, {561, 579, 580, 599}, {579, 580, 581, 562, 600}, {580, 581, 582, 563, 601}, {581, 582, 583, 564, 602}, {582, 583, 584, 565, 603}, {583, 584, 585, 566, 604}, {584, 585, 586, 567, 605}, {585, 586, 587, 568, 606}, {586, 587, 588, 569, 607}, {608, 587, 588, 589, 570}, {609, 588, 589, 590, 571}, {610, 572, 589, 590}, {592, 611, 573, 591}, {612, 591, 592, 593, 574}, {613, 592, 593, 594, 575}, {576, 614, 593, 594, 595}, {577, 615, 594, 595, 596}, {578, 616, 595, 596, 597}, {617, 596, 597}, {621, 598, 599}, {579, 622, 598, 599, 600}, {580, 623, 599, 600, 601}, {581, 624, 600, 601, 602}, {582, 625, 601, 602, 603}, {583, 626, 602, 603, 604}, {584, 627, 603, 604, 605}, {585, 628, 604, 605, 606}, {586, 629, 605, 606, 607}, {608, 587, 630, 606, 607}, {608, 609, 588, 631, 607}, {608, 609, 610, 589, 632}, {609, 610, 590, 633}, {636, 611, 612, 591}, {611, 612, 613, 592, 637}, {612, 613, 614, 593, 638}, {613, 614, 615, 594, 639}, {640, 614, 615, 616, 595}, {641, 615, 616, 617, 596}, {642, 616, 617, 618, 597}, {617, 618, 619, 643}, {644, 618, 619, 620}, {619, 620, 621, 645}, {646, 620, 621, 622, 598}, {647, 621, 622, 623, 599}, {648, 622, 623, 624, 600}, {649, 623, 624, 625, 601}, {650, 624, 625, 626, 602}, {651, 625, 626, 627, 603}, {652, 626, 627, 628, 604}, {653, 627, 628, 629, 605}, {654, 628, 629, 630, 606}, {655, 629, 630, 631, 607}, {608, 656, 630, 631, 632}, {609, 657, 631, 632, 633}, {632, 633, 610, 658}, {634, 635, 659}, {660, 634, 635, 636}, {611, 661, 635, 636, 637}, {612, 662, 636, 637, 638}, {613, 663, 637, 638, 639}, {640, 614, 664, 638, 639}, {640, 641, 615, 665, 639}, {640, 641, 642, 616, 666}, {641, 642, 643, 617, 667}, {642, 643, 644, 618, 668}, {643, 644, 645, 619, 669}, {644, 645, 646, 620, 670}, {645, 646, 647, 621, 671}, {672, 646, 647, 648, 622}, {673, 647, 648, 649, 623}, {674, 648, 649, 650, 624}, {675, 649, 650, 651, 625}, {676, 650, 651, 652, 626}, {677, 651, 652, 653, 627}, {678, 652, 653, 654, 628}, {679, 653, 654, 655, 629}, {680, 654, 655, 656, 630}, {681, 655, 656, 657, 631}, {682, 656, 657, 658, 632}, {633, 658, 657, 683}, {684, 634, 659, 660}, {685, 659, 660, 661, 635}, {686, 660, 661, 662, 636}, {687, 661, 662, 663, 637}, {688, 662, 663, 664, 638}, {689, 663, 664, 665, 639}, {640, 690, 664, 665, 666}, {641, 691, 665, 666, 667}, {642, 692, 666, 667, 668}, {643, 693, 667, 668, 669}, {644, 694, 668, 669, 670}, {645, 695, 669, 670, 671}, {672, 646, 696, 670, 671}, {672, 673, 647, 697, 671}, {672, 673, 674, 648, 698}, {673, 674, 675, 649, 699}, {674, 675, 676, 650, 700}, {675, 676, 677, 651, 701}, {676, 677, 678, 652, 702}, {677, 678, 679, 653, 703}, {704, 678, 679, 680, 654}, {705, 679, 680, 681, 655}, {706, 680, 681, 682, 656}, {707, 681, 682, 683, 657}, {682, 658, 683}, {708, 659, 684, 685}, {709, 684, 685, 686, 660}, {710, 685, 686, 687, 661}, {711, 686, 687, 688, 662}, {712, 687, 688, 689, 663}, {713, 688, 689, 690, 664}, {714, 689, 690, 691, 665}, {715, 690, 691, 692, 666}, {716, 691, 692, 693, 667}, {717, 692, 693, 694, 668}, {718, 693, 694, 695, 669}, {719, 694, 695, 696, 670}, {720, 695, 696, 697, 671}, {672, 721, 696, 697, 698}, {673, 722, 697, 698, 699}, {674, 723, 698, 699, 700}, {675, 724, 699, 700, 701}, {676, 725, 700, 701, 702}, {677, 726, 701, 702, 703}, {704, 678, 727, 702, 703}, {704, 705, 679, 728, 703}, {704, 705, 706, 680, 729}, {705, 706, 707, 681, 730}, {706, 682, 707, 731}, {684, 732, 708, 709}, {708, 709, 710, 685, 733}, {709, 710, 711, 686, 734}, {710, 711, 712, 687, 735}, {736, 711, 712, 713, 688}, {737, 712, 713, 714, 689}, {738, 713, 714, 715, 690}, {739, 714, 715, 716, 691}, {740, 715, 716, 717, 692}, {741, 716, 717, 718, 693}, {742, 717, 718, 719, 694}, {743, 718, 719, 720, 695}, {744, 719, 720, 721, 696}, {745, 720, 721, 722, 697}, {746, 721, 722, 723, 698}, {747, 722, 723, 724, 699}, {748, 723, 724, 725, 700}, {749, 724, 725, 726, 701}, {750, 725, 726, 727, 702}, {751, 726, 727, 728, 703}, {704, 752, 727, 728, 729}, {705, 753, 728, 729, 730}, {706, 754, 729, 730, 731}, {730, 731, 707, 755}, {708, 732, 733}, {709, 756, 732, 733, 734}, {710, 757, 733, 734, 735}, {736, 711, 758, 734, 735}, {736, 737, 712, 759, 735}, {736, 737, 738, 713, 760}, {737, 738, 739, 714, 761}, {738, 739, 740, 715, 762}, {739, 740, 741, 716, 763}, {740, 741, 742, 717, 764}, {741, 742, 743, 718, 765}, {742, 743, 744, 719, 766}, {743, 744, 745, 720, 767}, {768, 744, 745, 746, 721}, {769, 745, 746, 747, 722}, {770, 746, 747, 748, 723}, {771, 747, 748, 749, 724}, {772, 748, 749, 750, 725}, {773, 749, 750, 751, 726}, {774, 750, 751, 752, 727}, {775, 751, 752, 753, 728}, {776, 752, 753, 754, 729}, {777, 753, 754, 755, 730}, {778, 754, 755, 731}, {757, 756, 733}, {779, 756, 757, 758, 734}, {780, 757, 758, 759, 735}, {736, 781, 758, 759, 760}, {737, 782, 759, 760, 761}, {738, 783, 760, 761, 762}, {739, 784, 761, 762, 763}, {740, 785, 762, 763, 764}, {741, 786, 763, 764, 765}, {742, 787, 764, 765, 766}, {743, 788, 765, 766, 767}, {768, 744, 789, 766, 767}, {768, 769, 745, 790, 767}, {768, 769, 770, 746, 791}, {769, 770, 771, 747, 792}, {770, 771, 772, 748, 793}, {771, 772, 773, 749, 794}, {772, 773, 774, 750, 795}, {773, 774, 775, 751, 796}, {774, 775, 776, 752, 797}, {775, 776, 777, 753, 798}, {776, 777, 778, 754, 799}, {800, 777, 778, 755}, {779, 780, 757}, {801, 779, 780, 781, 758}, {802, 780, 781, 782, 759}, {803, 781, 782, 783, 760}, {804, 782, 783, 784, 761}, {805, 783, 784, 785, 762}, {806, 784, 785, 786, 763}, {807, 785, 786, 787, 764}, {808, 786, 787, 788, 765}, {809, 787, 788, 789, 766}, {810, 788, 789, 790, 767}, {768, 811, 789, 790, 791}, {769, 812, 790, 791, 792}, {770, 813, 791, 792, 793}, {771, 814, 792, 793, 794}, {772, 815, 793, 794, 795}, {794, 795, 796, 773}, {795, 796, 797, 774}, {775, 816, 796, 797, 798}, {776, 817, 797, 798, 799}, {800, 777, 818, 798, 799}, {800, 778, 799}, {801, 802, 780}, {801, 802, 803, 781}, {802, 803, 804, 782}, {803, 804, 805, 783}, {784, 804, 805, 806}, {785, 805, 806, 807}, {806, 807, 808, 786, 819}, {807, 808, 809, 787, 820}, {808, 809, 810, 788, 821}, {809, 810, 811, 789, 822}, {810, 811, 812, 790, 823}, {811, 812, 813, 791, 824}, {812, 813, 814, 792, 825}, {813, 814, 815, 793, 826}, {794, 827, 814, 815}, {816, 817, 828, 797}, {816, 817, 818, 829, 798}, {817, 818, 830, 799}, {819, 820, 831, 807}, {832, 808, 819, 820, 821}, {833, 809, 820, 821, 822}, {834, 810, 821, 822, 823}, {835, 811, 822, 823, 824}, {836, 812, 823, 824, 825}, {837, 813, 824, 825, 826}, {838, 814, 825, 826, 827}, {826, 827, 815}, {816, 828, 829}, {817, 828, 829, 830}, {818, 829, 830}, {832, 819, 839, 831}, {832, 833, 840, 820, 831}, {832, 833, 834, 841, 821}, {833, 834, 835, 842, 822}, {834, 835, 836, 843, 823}, {835, 836, 837, 844, 824}, {836, 837, 838, 845, 825}, {846, 826, 837, 838}, {840, 831, 839}, {840, 841, 832, 839}, {833, 840, 841, 842, 847}, {834, 841, 842, 843, 848}, {835, 842, 843, 844, 849}, {843, 844, 845, 836}, {837, 845, 846, 844}, {838, 845, 846}, {848, 841, 850, 847}, {842, 847, 848, 849, 851}, {848, 849, 843, 852}, {850, 851, 847}, {848, 850, 851, 852}, {849, 851, 852}];
input = [|201, 245|650, 722|153, 165|401, 237|710, 736|529, 545|721, 708|370, 281|26, 185|313, 517|];
V = 852;
A = 10;
E = 1572;
maxTime = 19

